c FILE /home/rafael/Documents/HappySet/MIHS/inputs/happygen/output/graph_d_regular_k10_p0.2_v100_20241127_084112.txt
c SOURCE This is a d-regular graph formed for the happy graph colouring problem.
c DESCRIPTION It was generated using the problem generator of Rhyd Lewis
c
c GRAPH STATS
c Seed                             = -1359822630
c Number of Nodes                  = 100
c Number of colours k              = 10
c Number of pre-assignments        = 20
c Degree of all vertices           = 6
c Density                          = 0.0606061
c 
c The degrees of nodes 1 to 100, respectively, are as follows 
c [6, 6, 6, 6, 6, 6, 6, 6, 6, 6, 6, 6, 6, 6, 6, 6, 6, 6, 6, 6, 6, 6, 6, 6, 6, 6, 
c  6, 6, 6, 6, 6, 6, 6, 6, 6, 6, 6, 6, 6, 6, 6, 6, 6, 6, 6, 6, 6, 6, 6, 6, 6, 
c  6, 6, 6, 6, 6, 6, 6, 6, 6, 6, 6, 6, 6, 6, 6, 6, 6, 6, 6, 6, 6, 6, 6, 6, 6, 
c  6, 6, 6, 6, 6, 6, 6, 6, 6, 6, 6, 6, 6, 6, 6, 6, 6, 6, 6, 6, 6, 6, 6, 6] 
c  
p edge 100 300 10
e 1 7
e 1 11
e 1 19
e 1 32
e 1 63
e 1 64
e 2 3
e 2 9
e 2 13
e 2 21
e 2 35
e 2 85
e 3 6
e 3 36
e 3 41
e 3 47
e 3 60
e 4 16
e 4 19
e 4 23
e 4 26
e 4 33
e 4 86
e 5 19
e 5 34
e 5 45
e 5 71
e 5 96
e 5 98
e 6 37
e 6 42
e 6 51
e 6 53
e 6 60
e 7 14
e 7 25
e 7 39
e 7 41
e 7 93
e 8 28
e 8 31
e 8 38
e 8 42
e 8 61
e 8 71
e 9 44
e 9 51
e 9 75
e 9 76
e 9 100
e 10 39
e 10 52
e 10 58
e 10 61
e 10 83
e 10 95
e 11 37
e 11 41
e 11 59
e 11 80
e 11 99
e 12 14
e 12 18
e 12 58
e 12 63
e 12 81
e 12 100
e 13 34
e 13 58
e 13 67
e 13 73
e 13 76
e 14 43
e 14 45
e 14 60
e 14 89
e 15 24
e 15 25
e 15 45
e 15 47
e 15 48
e 15 87
e 16 26
e 16 29
e 16 31
e 16 40
e 16 95
e 17 35
e 17 62
e 17 68
e 17 70
e 17 74
e 17 86
e 18 56
e 18 64
e 18 68
e 18 77
e 18 86
e 19 24
e 19 77
e 19 84
e 20 42
e 20 51
e 20 53
e 20 54
e 20 89
e 20 92
e 21 36
e 21 48
e 21 51
e 21 59
e 21 85
e 22 38
e 22 65
e 22 67
e 22 73
e 22 89
e 22 100
e 23 35
e 23 49
e 23 69
e 23 79
e 23 92
e 24 46
e 24 48
e 24 49
e 24 94
e 25 55
e 25 72
e 25 76
e 25 81
e 26 59
e 26 82
e 26 88
e 26 90
e 27 28
e 27 46
e 27 53
e 27 67
e 27 70
e 27 97
e 28 31
e 28 67
e 28 80
e 28 81
e 29 63
e 29 79
e 29 90
e 29 93
e 29 99
e 30 57
e 30 69
e 30 78
e 30 82
e 30 90
e 30 93
e 31 57
e 31 60
e 31 73
e 32 48
e 32 50
e 32 83
e 32 85
e 32 91
e 33 42
e 33 66
e 33 81
e 33 94
e 33 96
e 34 36
e 34 71
e 34 72
e 34 78
e 35 39
e 35 47
e 35 61
e 36 66
e 36 67
e 36 98
e 37 40
e 37 51
e 37 53
e 37 97
e 38 42
e 38 66
e 38 77
e 38 99
e 39 40
e 39 87
e 39 98
e 40 62
e 40 65
e 40 91
e 41 49
e 41 50
e 41 58
e 42 57
e 43 65
e 43 73
e 43 79
e 43 80
e 43 91
e 44 59
e 44 70
e 44 75
e 44 93
e 44 96
e 45 61
e 45 78
e 45 82
e 46 64
e 46 69
e 46 82
e 46 94
e 47 49
e 47 84
e 47 88
e 48 72
e 48 74
e 49 56
e 49 80
e 50 55
e 50 66
e 50 73
e 50 74
e 51 91
e 52 68
e 52 71
e 52 72
e 52 76
e 52 80
e 53 57
e 53 94
e 54 56
e 54 58
e 54 88
e 54 89
e 54 97
e 55 75
e 55 90
e 55 91
e 55 97
e 56 64
e 56 66
e 56 68
e 57 90
e 57 97
e 58 82
e 59 77
e 59 99
e 60 74
e 60 87
e 61 69
e 61 85
e 62 64
e 62 75
e 62 83
e 62 89
e 63 65
e 63 70
e 63 84
e 64 96
e 65 85
e 65 98
e 66 96
e 67 83
e 68 84
e 68 86
e 69 87
e 69 92
e 70 87
e 70 94
e 71 78
e 71 99
e 72 78
e 72 95
e 73 100
e 74 81
e 74 95
e 75 99
e 75 100
e 76 86
e 76 92
e 77 80
e 77 84
e 78 84
e 79 88
e 79 90
e 79 95
e 81 92
e 82 83
e 83 92
e 85 93
e 86 94
e 87 93
e 88 95
e 88 97
e 89 98
e 91 98
e 96 100
n 1 3
n 5 3
n 9 9
n 16 6
n 18 4
n 19 3
n 33 2
n 35 5
n 36 1
n 42 2
n 52 10
n 59 7
n 60 4
n 62 2
n 73 4
n 80 10
n 88 8
n 90 5
n 93 2
n 99 7
